
n_res = 6;
rcap = [23, 24, 24, 27, 723, 653];
rtype = [1, 1, 1, 1, 2, 2];
n_tasks = 50;
modes =  [{1, 2, 3}, {4, 5, 6}, {7, 8, 9}, {10, 11, 12}, {13, 14, 15}, {16, 17, 18}, {19, 20, 21}, {22, 23, 24}, {25, 26, 27}, {28, 29, 30}, {31, 32, 33}, {34, 35, 36}, {37, 38, 39}, {40, 41, 42}, {43, 44, 45}, {46, 47, 48}, {49, 50, 51}, {52, 53, 54}, {55, 56, 57}, {58, 59, 60}, {61, 62, 63}, {64, 65, 66}, {67, 68, 69}, {70, 71, 72}, {73, 74, 75}, {76, 77, 78}, {79, 80, 81}, {82, 83, 84}, {85, 86, 87}, {88, 89, 90}, {91, 92, 93}, {94, 95, 96}, {97, 98, 99}, {100, 101, 102}, {103, 104, 105}, {106, 107, 108}, {109, 110, 111}, {112, 113, 114}, {115, 116, 117}, {118, 119, 120}, {121, 122, 123}, {124, 125, 126}, {127, 128, 129}, {130, 131, 132}, {133, 134, 135}, {136, 137, 138}, {139, 140, 141}, {142, 143, 144}, {145, 146, 147}, {148, 149, 150}];
succ =  [{32, 23, 21, 16, 12, 11, 9, 7}, {39, 32, 25, 23, 22, 18, 16, 12}, {39, 27, 22, 18, 11, 8}, {34, 32, 29, 22, 19, 11}, {34, 32, 30, 29, 28, 24, 22, 19}, {32, 28, 27, 24, 22, 18}, {39, 33, 30, 29, 28, 22, 19}, {38, 33, 32, 30, 29, 28, 19}, {38, 34, 33, 29, 28, 18}, {39, 38, 30, 28, 26, 24}, {38, 30, 28, 26, 24}, {38, 34, 28, 27, 19}, {50, 30, 29, 25, 24}, {39, 33, 29, 18}, {47, 33, 32, 31, 30, 29, 26}, {29, 27, 26, 24}, {25, 24, 23}, {48, 47, 31, 30, 26}, {48, 47, 31, 26}, {47, 38, 31, 26}, {48, 47, 45, 26}, {48, 47, 38, 37, 35, 31}, {50, 49, 47, 37, 35, 31}, {47, 37, 35, 33, 31}, {49, 48, 47, 44, 38, 37, 36}, {50, 49, 46, 44, 37, 35}, {49, 37, 36, 31}, {48, 47, 45, 44, 43, 36}, {48, 46, 45, 43, 42, 41, 40}, {46, 44, 43, 36}, {46, 45, 44, 42, 41, 40}, {48, 44, 37}, {48, 43, 42, 41, 40}, {45, 42, 41, 40}, {36}, {42, 41, 40}, {43, 41, 40}, {46, 45}, {47, 44}, {}, {}, {}, {}, {}, {}, {}, {}, {}, {}, {}];
n_opt = 150;
dur = [6, 17, 22, 5, 11, 24, 22, 26, 27, 10, 18, 28, 9, 10, 16, 12, 13, 19, 4, 8, 25, 5, 16, 26, 6, 14, 19, 13, 26, 27, 16, 24, 27, 5, 13, 29, 1, 4, 23, 4, 11, 14, 9, 17, 30, 5, 12, 30, 1, 12, 19, 6, 25, 28, 5, 13, 28, 14, 18, 26, 1, 4, 7, 3, 11, 29, 11, 13, 27, 5, 11, 21, 4, 15, 21, 3, 21, 22, 5, 19, 20, 15, 18, 21, 15, 16, 19, 1, 10, 17, 1, 10, 19, 12, 13, 18, 7, 12, 17, 2, 14, 28, 2, 4, 15, 8, 26, 29, 3, 6, 9, 9, 16, 17, 15, 17, 28, 6, 17, 20, 17, 21, 26, 7, 12, 29, 17, 23, 28, 15, 28, 29, 6, 14, 24, 1, 2, 5, 1, 4, 13, 13, 25, 28, 24, 27, 28, 1, 10, 17];
rreq = [|2, 1, 1, 4, 4, 4, 3, 3, 2, 3, 2, 1, 2, 2, 2, 4, 2, 2, 2, 2, 2, 5, 2, 1, 4, 3, 3, 4, 4, 4, 3, 3, 3, 4, 4, 3, 5, 3, 3, 4, 4, 4, 4, 4, 4, 1, 1, 1, 3, 2, 2, 4, 3, 3, 1, 1, 1, 1, 1, 1, 3, 3, 1, 2, 2, 2, 3, 2, 2, 3, 2, 1, 3, 2, 1, 3, 1, 1, 3, 3, 2, 2, 1, 1, 4, 4, 4, 4, 4, 4, 5, 4, 4, 3, 3, 3, 3, 3, 3, 3, 3, 3, 5, 4, 3, 3, 3, 3, 5, 4, 4, 3, 2, 2, 4, 4, 2, 3, 3, 2, 4, 3, 1, 2, 1, 1, 2, 1, 1, 3, 2, 2, 4, 4, 3, 5, 4, 4, 1, 1, 1, 5, 4, 4, 5, 3, 3, 5, 3, 3
 |5, 4, 2, 4, 4, 4, 4, 3, 2, 1, 1, 1, 3, 2, 1, 2, 2, 1, 2, 1, 1, 3, 1, 1, 5, 5, 5, 2, 2, 2, 3, 2, 1, 4, 2, 2, 3, 1, 1, 3, 3, 3, 4, 2, 1, 5, 4, 4, 2, 1, 1, 4, 4, 3, 3, 2, 1, 5, 4, 4, 2, 1, 1, 4, 3, 1, 1, 1, 1, 3, 2, 1, 4, 3, 2, 4, 4, 4, 3, 2, 2, 2, 2, 2, 5, 5, 5, 4, 3, 2, 2, 2, 2, 4, 4, 4, 4, 3, 3, 1, 1, 1, 1, 1, 1, 5, 4, 2, 5, 5, 5, 5, 5, 5, 3, 3, 1, 3, 3, 2, 2, 2, 2, 5, 3, 1, 2, 1, 1, 5, 3, 3, 3, 2, 1, 1, 1, 1, 4, 2, 1, 3, 1, 1, 1, 1, 1, 4, 3, 2
 |3, 2, 2, 2, 2, 2, 2, 1, 1, 3, 3, 2, 5, 3, 2, 4, 3, 3, 5, 4, 4, 5, 4, 3, 1, 1, 1, 2, 1, 1, 4, 3, 3, 4, 2, 2, 5, 5, 5, 1, 1, 1, 1, 1, 1, 1, 1, 1, 4, 3, 3, 4, 3, 3, 4, 3, 1, 2, 2, 2, 4, 4, 4, 3, 3, 1, 4, 3, 3, 4, 3, 2, 5, 2, 2, 4, 4, 4, 3, 2, 2, 4, 3, 1, 2, 2, 2, 5, 4, 3, 3, 3, 2, 5, 3, 3, 5, 4, 3, 4, 3, 2, 5, 3, 2, 3, 1, 1, 5, 5, 5, 2, 2, 2, 3, 3, 3, 4, 3, 3, 3, 3, 1, 2, 2, 2, 1, 1, 1, 3, 2, 2, 5, 4, 3, 3, 2, 2, 3, 2, 2, 2, 1, 1, 3, 2, 1, 3, 3, 3
 |3, 2, 1, 3, 2, 2, 4, 3, 3, 4, 4, 4, 2, 1, 1, 2, 1, 1, 4, 3, 2, 1, 1, 1, 2, 2, 2, 5, 5, 5, 3, 3, 2, 4, 3, 3, 2, 2, 1, 4, 2, 2, 3, 3, 3, 4, 3, 3, 4, 2, 2, 5, 2, 2, 3, 2, 2, 4, 4, 4, 5, 4, 2, 2, 2, 2, 3, 3, 2, 4, 4, 4, 4, 4, 4, 4, 2, 1, 1, 1, 1, 5, 4, 4, 3, 3, 3, 2, 2, 2, 4, 3, 3, 2, 2, 2, 3, 2, 2, 3, 1, 1, 5, 3, 1, 2, 2, 2, 4, 3, 1, 5, 4, 4, 5, 4, 3, 5, 5, 5, 5, 5, 5, 2, 1, 1, 1, 1, 1, 4, 3, 3, 5, 4, 3, 3, 2, 2, 5, 4, 4, 4, 3, 3, 3, 2, 1, 3, 2, 2
 |25, 24, 22, 18, 15, 7, 27, 23, 22, 13, 10, 7, 27, 13, 5, 16, 7, 5, 15, 12, 9, 21, 10, 7, 10, 9, 9, 13, 12, 9, 13, 13, 11, 22, 16, 12, 28, 21, 17, 18, 16, 15, 17, 14, 12, 29, 23, 23, 18, 14, 9, 20, 16, 12, 28, 27, 26, 28, 27, 26, 21, 15, 11, 16, 13, 4, 25, 19, 16, 18, 13, 9, 14, 13, 12, 16, 12, 11, 24, 19, 12, 23, 19, 18, 4, 3, 1, 11, 11, 11, 15, 8, 7, 16, 15, 15, 12, 10, 10, 24, 19, 17, 22, 16, 15, 23, 19, 16, 12, 8, 4, 15, 15, 14, 20, 18, 8, 23, 18, 16, 25, 20, 19, 26, 24, 24, 28, 22, 15, 23, 21, 19, 10, 8, 8, 28, 26, 23, 20, 19, 12, 26, 17, 11, 12, 11, 9, 23, 20, 5
 |1, 1, 1, 25, 24, 24, 26, 25, 22, 13, 10, 10, 17, 12, 9, 27, 12, 11, 12, 10, 9, 16, 9, 6, 19, 17, 12, 23, 21, 17, 24, 23, 21, 21, 20, 19, 19, 15, 14, 18, 14, 9, 15, 14, 11, 18, 8, 1, 23, 17, 9, 19, 15, 9, 18, 9, 3, 8, 5, 1, 18, 15, 13, 27, 27, 27, 27, 19, 13, 11, 9, 7, 27, 24, 24, 12, 7, 6, 14, 12, 10, 17, 11, 8, 9, 9, 3, 26, 23, 20, 22, 18, 5, 10, 9, 8, 19, 13, 2, 9, 8, 8, 11, 7, 6, 14, 11, 10, 11, 10, 10, 29, 18, 14, 26, 21, 16, 23, 19, 11, 23, 20, 16, 22, 20, 19, 15, 13, 11, 21, 14, 9, 22, 16, 6, 23, 19, 10, 19, 14, 8, 21, 21, 12, 17, 17, 17, 16, 15, 15|];